
Gurobi 7.0.2 (win64, Python) logging started 10/17/17 23:21:38


Gurobi 7.0.2 (win64, Python) logging started 10/17/17 23:22:20


Gurobi 7.0.2 (win64, Python) logging started 10/17/17 23:22:36


Gurobi 7.0.2 (win64, Python) logging started 10/17/17 23:38:01


Gurobi 7.0.2 (win64, Python) logging started 10/17/17 23:38:11


Gurobi 7.0.2 (win64, Python) logging started 10/17/17 23:40:41


Gurobi 7.0.2 (win64, Python) logging started 10/18/17 00:01:43


Gurobi 7.0.2 (win64, Python) logging started 10/18/17 08:01:14

Parameter OutputFlag unchanged
   Value: 1  Min: 0  Max: 1  Default: 1

Gurobi 7.0.2 (win64, Python) logging started 10/18/17 08:06:44

Parameter OutputFlag unchanged
   Value: 1  Min: 0  Max: 1  Default: 1

Gurobi 7.0.2 (win64, Python) logging started 10/18/17 08:09:16

Parameter OutputFlag unchanged
   Value: 1  Min: 0  Max: 1  Default: 1

Gurobi 7.0.2 (win64, Python) logging started 10/18/17 08:09:52

Parameter OutputFlag unchanged
   Value: 1  Min: 0  Max: 1  Default: 1
Optimize a model with 999 rows, 1862 columns and 2793 nonzeros
Variable types: 931 continuous, 931 integer (0 binary)
Coefficient statistics:
  Matrix range     [1e+00, 2e+01]
  Objective range  [1e+02, 5e+03]
  Bounds range     [0e+00, 0e+00]
  RHS range        [2e+01, 1e+02]
Found heuristic solution: objective 0

Explored 0 nodes (0 simplex iterations) in 0.07 seconds
Thread count was 1 (of 8 available processors)

Solution count 1: 0 
Pool objective bound 0

Optimal solution found (tolerance 1.00e-04)
Best objective 0.000000000000e+00, best bound 0.000000000000e+00, gap 0.0000%

Gurobi 7.0.2 (win64, Python) logging started 10/18/17 08:11:18

Parameter OutputFlag unchanged
   Value: 1  Min: 0  Max: 1  Default: 1
Optimize a model with 999 rows, 1862 columns and 2793 nonzeros
Variable types: 931 continuous, 931 integer (0 binary)
Coefficient statistics:
  Matrix range     [1e+00, 2e+01]
  Objective range  [1e+02, 5e+03]
  Bounds range     [0e+00, 0e+00]
  RHS range        [2e+01, 1e+02]
Found heuristic solution: objective 0

Explored 0 nodes (0 simplex iterations) in 0.00 seconds
Thread count was 1 (of 8 available processors)

Solution count 1: 0 
Pool objective bound 0

Optimal solution found (tolerance 1.00e-04)
Best objective 0.000000000000e+00, best bound 0.000000000000e+00, gap 0.0000%

Gurobi 7.0.2 (win64, Python) logging started 10/18/17 08:11:25


Gurobi 7.0.2 (win64, Python) logging started 10/18/17 08:17:45


Gurobi 7.0.2 (win64, Python) logging started 10/18/17 08:27:44


Gurobi 7.0.2 (win64, Python) logging started 10/18/17 12:17:39


Gurobi 7.0.2 (win64, Python) logging started 10/18/17 12:18:05


Gurobi 7.0.2 (win64, Python) logging started 10/18/17 12:20:22


Gurobi 7.0.2 (win64, Python) logging started 10/18/17 12:20:37


Gurobi 7.0.2 (win64, Python) logging started 10/18/17 12:20:56


Gurobi 7.0.2 (win64, Python) logging started 10/18/17 12:25:49


Gurobi 7.0.2 (win64, Python) logging started 10/18/17 12:30:03


Gurobi 7.0.2 (win64, Python) logging started 10/18/17 12:34:12


Gurobi 7.0.2 (win64, Python) logging started 10/18/17 12:34:25


Gurobi 7.0.2 (win64, Python) logging started 10/18/17 12:36:20


Gurobi 7.0.2 (win64, Python) logging started 10/18/17 12:36:46


Gurobi 7.0.2 (win64, Python) logging started 10/18/17 12:37:51


Gurobi 7.0.2 (win64, Python) logging started 10/18/17 12:39:56


Gurobi 7.0.2 (win64, Python) logging started 10/18/17 12:40:41


Gurobi 7.0.2 (win64, Python) logging started 10/18/17 12:41:58


Gurobi 7.0.2 (win64, Python) logging started 10/18/17 12:43:58


Gurobi 7.0.2 (win64, Python) logging started 10/18/17 12:51:20


Gurobi 7.0.2 (win64, Python) logging started 10/18/17 12:53:40


Gurobi 7.0.2 (win64, Python) logging started 10/18/17 12:58:00


Gurobi 7.0.2 (win64, Python) logging started 10/18/17 12:58:38


Gurobi 7.0.2 (win64, Python) logging started 10/18/17 13:02:09


Gurobi 7.0.2 (win64, Python) logging started 10/18/17 14:10:22


Gurobi 7.0.2 (win64, Python) logging started 10/18/17 14:11:16


Gurobi 7.0.2 (win64, Python) logging started 10/18/17 14:16:27


Gurobi 7.0.2 (win64, Python) logging started 10/18/17 14:21:51


Gurobi 7.0.2 (win64, Python) logging started 10/18/17 14:28:01


Gurobi 7.0.2 (win64, Python) logging started 10/18/17 14:36:40


Gurobi 7.0.2 (win64, Python) logging started 10/18/17 14:41:26


Gurobi 7.0.2 (win64, Python) logging started 10/18/17 14:44:02


Gurobi 7.0.2 (win64, Python) logging started 10/18/17 14:44:44


Gurobi 7.0.2 (win64, Python) logging started 10/18/17 14:48:01


Gurobi 7.0.2 (win64, Python) logging started 10/18/17 14:49:10


Gurobi 7.0.2 (win64, Python) logging started 10/18/17 14:54:22


Gurobi 7.0.2 (win64, Python) logging started 10/18/17 14:55:43


Gurobi 7.0.2 (win64, Python) logging started 10/18/17 15:37:41


Gurobi 7.0.2 (win64, Python) logging started 10/18/17 15:38:47


Gurobi 7.0.2 (win64, Python) logging started 10/18/17 15:39:08


Gurobi 7.0.2 (win64, Python) logging started 10/18/17 15:39:40


Gurobi 7.0.2 (win64, Python) logging started 10/18/17 15:40:26


Gurobi 7.0.2 (win64, Python) logging started 10/18/17 15:41:05


Gurobi 7.0.2 (win64, Python) logging started 10/18/17 15:48:55


Gurobi 7.0.2 (win64, Python) logging started 10/18/17 15:49:22


Gurobi 7.0.2 (win64, Python) logging started 10/18/17 15:50:20


Gurobi 7.0.2 (win64, Python) logging started 10/18/17 15:52:14


Gurobi 7.0.2 (win64, Python) logging started 10/18/17 15:52:33


Gurobi 7.0.2 (win64, Python) logging started 10/18/17 15:52:57


Gurobi 7.0.2 (win64, Python) logging started 10/18/17 15:53:00


Gurobi 7.0.2 (win64, Python) logging started 10/18/17 15:53:25


Gurobi 7.0.2 (win64, Python) logging started 10/18/17 15:54:01


Gurobi 7.0.2 (win64, Python) logging started 10/18/17 15:54:16


Gurobi 7.0.2 (win64, Python) logging started 10/18/17 15:54:44


Gurobi 7.0.2 (win64, Python) logging started 10/18/17 15:55:13


Gurobi 7.0.2 (win64, Python) logging started 10/18/17 15:55:37


Gurobi 7.0.2 (win64, Python) logging started 10/18/17 15:58:01


Gurobi 7.0.2 (win64, Python) logging started 10/18/17 16:00:02


Gurobi 7.0.2 (win64, Python) logging started 10/18/17 16:00:38


Gurobi 7.0.2 (win64, Python) logging started 10/18/17 16:02:13


Gurobi 7.0.2 (win64, Python) logging started 10/18/17 16:02:29


Gurobi 7.0.2 (win64, Python) logging started 10/18/17 16:02:46


Gurobi 7.0.2 (win64, Python) logging started 10/18/17 16:03:02


Gurobi 7.0.2 (win64, Python) logging started 10/18/17 16:03:17


Gurobi 7.0.2 (win64, Python) logging started 10/18/17 16:03:32


Gurobi 7.0.2 (win64, Python) logging started 10/18/17 16:05:00


Gurobi 7.0.2 (win64, Python) logging started 10/18/17 16:05:27


Gurobi 7.0.2 (win64, Python) logging started 10/18/17 16:06:24


Gurobi 7.0.2 (win64, Python) logging started 10/18/17 19:37:36

